p tw 100 13501 2 
1 3 
1 4 
1 5 
1 6 
1 7 
1 8 
1 9 
1 10 
1 11 
1 18 
1 21 
1 25 
1 31 
1 33 
1 41 
1 49 
1 51 
1 56 
1 61 
1 70 
1 71 
1 74 
1 81 
1 82 
1 91 
1 97 
2 3 
2 4 
2 5 
2 6 
2 7 
2 8 
2 9 
2 10 
2 12 
2 17 
2 22 
2 28 
2 32 
2 36 
2 42 
2 43 
2 52 
2 60 
2 62 
2 64 
2 72 
2 79 
2 81 
2 82 
2 92 
2 95 
3 4 
3 5 
3 6 
3 7 
3 8 
3 9 
3 10 
3 13 
3 19 
3 22 
3 23 
3 33 
3 37 
3 43 
3 48 
3 53 
3 55 
3 61 
3 63 
3 73 
3 76 
3 83 
3 90 
3 93 
3 94 
4 5 
4 6 
4 7 
4 8 
4 9 
4 10 
4 14 
4 16 
4 21 
4 24 
4 34 
4 38 
4 44 
4 47 
4 53 
4 54 
4 64 
4 69 
4 74 
4 80 
4 84 
4 85 
4 92 
4 94 
5 6 
5 7 
5 8 
5 9 
5 10 
5 13 
5 15 
5 25 
5 27 
5 34 
5 35 
5 41 
5 45 
5 55 
5 58 
5 65 
5 66 
5 72 
5 75 
5 85 
5 89 
5 95 
5 100 
6 7 
6 8 
6 9 
6 10 
6 12 
6 16 
6 26 
6 29 
6 36 
6 40 
6 44 
6 46 
6 56 
6 57 
6 65 
6 66 
6 73 
6 76 
6 86 
6 88 
6 91 
6 96 
7 8 
7 9 
7 10 
7 14 
7 17 
7 26 
7 27 
7 35 
7 37 
7 47 
7 50 
7 51 
7 57 
7 62 
7 67 
7 77 
7 78 
7 83 
7 87 
7 97 
7 99 
8 9 
8 10 
8 18 
8 20 
8 24 
8 28 
8 31 
8 38 
8 42 
8 48 
8 58 
8 59 
8 67 
8 68 
8 75 
8 78 
8 86 
8 88 
8 93 
8 98 
9 10 
9 15 
9 19 
9 29 
9 30 
9 32 
9 39 
9 46 
9 49 
9 54 
9 59 
9 63 
9 69 
9 71 
9 79 
9 87 
9 89 
9 98 
9 99 
10 11 
10 20 
10 23 
10 30 
10 39 
10 40 
10 45 
10 50 
10 52 
10 60 
10 68 
10 70 
10 77 
10 80 
10 84 
10 90 
10 96 
10 100 
11 12 
11 13 
11 14 
11 15 
11 16 
11 17 
11 18 
11 19 
11 20 
11 21 
11 23 
11 31 
11 39 
11 41 
11 45 
11 51 
11 52 
11 61 
11 68 
11 71 
11 77 
11 81 
11 84 
11 91 
11 96 
12 13 
12 14 
12 15 
12 16 
12 17 
12 18 
12 19 
12 20 
12 22 
12 29 
12 32 
12 40 
12 42 
12 44 
12 52 
12 57 
12 62 
12 65 
12 72 
12 73 
12 82 
12 88 
12 91 
12 92 
13 14 
13 15 
13 16 
13 17 
13 18 
13 19 
13 20 
13 23 
13 27 
13 33 
13 34 
13 41 
13 43 
13 53 
13 58 
13 63 
13 66 
13 72 
13 73 
13 83 
13 89 
13 93 
13 100 
14 15 
14 16 
14 17 
14 18 
14 19 
14 20 
14 24 
14 26 
14 34 
14 35 
14 44 
14 50 
14 51 
14 54 
14 62 
14 64 
14 74 
14 78 
14 83 
14 84 
14 94 
14 99 
15 16 
15 17 
15 18 
15 19 
15 20 
15 25 
15 30 
15 32 
15 35 
15 45 
15 46 
15 54 
15 55 
15 63 
15 65 
15 71 
15 75 
15 85 
15 87 
15 95 
15 98 
16 17 
16 18 
16 19 
16 20 
16 21 
16 26 
16 36 
16 38 
16 46 
16 47 
16 53 
16 56 
16 66 
16 69 
16 76 
16 80 
16 85 
16 86 
16 92 
16 96 
17 18 
17 19 
17 20 
17 27 
17 28 
17 36 
17 37 
17 43 
17 47 
17 57 
17 60 
17 64 
17 67 
17 77 
17 79 
17 81 
17 87 
17 95 
17 97 
18 19 
18 20 
18 25 
18 28 
18 33 
18 38 
18 48 
18 49 
18 56 
18 58 
18 68 
18 70 
18 74 
18 78 
18 82 
18 88 
18 97 
18 98 
19 20 
19 22 
19 29 
19 37 
19 39 
19 48 
19 49 
19 55 
19 59 
19 61 
19 69 
19 76 
19 79 
19 89 
19 90 
19 94 
19 99 
20 24 
20 30 
20 31 
20 40 
20 42 
20 50 
20 59 
20 60 
20 67 
20 70 
20 75 
20 80 
20 86 
20 90 
20 93 
20 100 
21 22 
21 23 
21 24 
21 25 
21 26 
21 27 
21 28 
21 29 
21 30 
21 31 
21 38 
21 41 
21 47 
21 51 
21 53 
21 61 
21 69 
21 71 
21 80 
21 81 
21 85 
21 91 
21 92 
22 23 
22 24 
22 25 
22 26 
22 27 
22 28 
22 29 
22 30 
22 32 
22 37 
22 42 
22 48 
22 52 
22 55 
22 61 
22 62 
22 72 
22 76 
22 82 
22 90 
22 92 
22 94 
23 24 
23 25 
23 26 
23 27 
23 28 
23 29 
23 30 
23 33 
23 39 
23 43 
23 45 
23 52 
23 53 
23 63 
23 68 
23 73 
23 77 
23 83 
23 84 
23 93 
23 96 
24 25 
24 26 
24 27 
24 28 
24 29 
24 30 
24 31 
24 34 
24 42 
24 44 
24 54 
24 59 
24 64 
24 67 
24 74 
24 75 
24 84 
24 86 
24 93 
24 94 
25 26 
25 27 
25 28 
25 29 
25 30 
25 33 
25 35 
25 45 
25 49 
25 55 
25 56 
25 65 
25 70 
25 74 
25 75 
25 82 
25 85 
25 95 
25 97 
26 27 
26 28 
26 29 
26 30 
26 35 
26 36 
26 46 
26 50 
26 51 
26 56 
26 62 
26 66 
26 76 
26 78 
26 83 
26 86 
26 96 
26 99 
27 28 
27 29 
27 30 
27 34 
27 37 
27 41 
27 47 
27 57 
27 58 
27 66 
27 67 
27 72 
27 77 
27 87 
27 89 
27 97 
27 100 
28 29 
28 30 
28 36 
28 38 
28 43 
28 48 
28 58 
28 60 
28 64 
28 68 
28 78 
28 79 
28 81 
28 88 
28 95 
28 98 
29 30 
29 39 
29 40 
29 44 
29 49 
29 57 
29 59 
29 65 
29 69 
29 73 
29 79 
29 88 
29 89 
29 91 
29 99 
30 32 
30 40 
30 46 
30 50 
30 54 
30 60 
30 63 
30 70 
30 71 
30 80 
30 87 
30 90 
30 98 
30 100 
31 32 
31 33 
31 34 
31 35 
31 36 
31 37 
31 38 
31 39 
31 40 
31 41 
31 42 
31 51 
31 59 
31 61 
31 67 
31 71 
31 75 
31 81 
31 86 
31 91 
31 93 
32 33 
32 34 
32 35 
32 36 
32 37 
32 38 
32 39 
32 40 
32 42 
32 46 
32 52 
32 54 
32 62 
32 63 
32 71 
32 72 
32 82 
32 87 
32 92 
32 98 
33 34 
33 35 
33 36 
33 37 
33 38 
33 39 
33 40 
33 43 
33 49 
33 53 
33 56 
33 63 
33 70 
33 73 
33 74 
33 82 
33 83 
33 93 
33 97 
34 35 
34 36 
34 37 
34 38 
34 39 
34 40 
34 41 
34 44 
34 54 
34 58 
34 64 
34 66 
34 72 
34 74 
34 84 
34 89 
34 94 
34 100 
35 36 
35 37 
35 38 
35 39 
35 40 
35 45 
35 50 
35 51 
35 55 
35 62 
35 65 
35 75 
35 78 
35 83 
35 85 
35 95 
35 99 
36 37 
36 38 
36 39 
36 40 
36 43 
36 46 
36 56 
36 60 
36 64 
36 66 
36 76 
36 79 
36 81 
36 86 
36 95 
36 96 
37 38 
37 39 
37 40 
37 47 
37 48 
37 55 
37 57 
37 61 
37 67 
37 76 
37 77 
37 87 
37 90 
37 94 
37 97 
38 39 
38 40 
38 47 
38 48 
38 53 
38 58 
38 68 
38 69 
38 78 
38 80 
38 85 
38 88 
38 92 
38 98 
39 40 
39 45 
39 49 
39 52 
39 59 
39 68 
39 69 
39 77 
39 79 
39 84 
39 89 
39 96 
39 99 
40 44 
40 50 
40 57 
40 60 
40 65 
40 70 
40 73 
40 80 
40 88 
40 90 
40 91 
40 100 
41 42 
41 43 
41 44 
41 45 
41 46 
41 47 
41 48 
41 49 
41 50 
41 51 
41 58 
41 61 
41 66 
41 71 
41 72 
41 81 
41 89 
41 91 
41 100 
42 43 
42 44 
42 45 
42 46 
42 47 
42 48 
42 49 
42 50 
42 52 
42 59 
42 62 
42 67 
42 72 
42 75 
42 82 
42 86 
42 92 
42 93 
43 44 
43 45 
43 46 
43 47 
43 48 
43 49 
43 50 
43 53 
43 60 
43 63 
43 64 
43 73 
43 79 
43 81 
43 83 
43 93 
43 95 
44 45 
44 46 
44 47 
44 48 
44 49 
44 50 
44 54 
44 57 
44 64 
44 65 
44 73 
44 74 
44 84 
44 88 
44 91 
44 94 
45 46 
45 47 
45 48 
45 49 
45 50 
45 52 
45 55 
45 65 
45 68 
45 75 
45 77 
45 84 
45 85 
45 95 
45 96 
46 47 
46 48 
46 49 
46 50 
46 54 
46 56 
46 63 
46 66 
46 71 
46 76 
46 86 
46 87 
46 96 
46 98 
47 48 
47 49 
47 50 
47 53 
47 57 
47 67 
47 69 
47 77 
47 80 
47 85 
47 87 
47 92 
47 97 
48 49 
48 50 
48 55 
48 58 
48 61 
48 68 
48 76 
48 78 
48 88 
48 90 
48 94 
48 98 
49 50 
49 56 
49 59 
49 69 
49 70 
49 74 
49 79 
49 82 
49 89 
49 97 
49 99 
50 51 
50 60 
50 62 
50 70 
50 78 
50 80 
50 83 
50 90 
50 99 
50 100 
51 52 
51 53 
51 54 
51 55 
51 56 
51 57 
51 58 
51 59 
51 60 
51 61 
51 62 
51 71 
51 78 
51 81 
51 83 
51 91 
51 99 
52 53 
52 54 
52 55 
52 56 
52 57 
52 58 
52 59 
52 60 
52 62 
52 68 
52 72 
52 77 
52 82 
52 84 
52 92 
52 96 
53 54 
53 55 
53 56 
53 57 
53 58 
53 59 
53 60 
53 63 
53 69 
53 73 
53 80 
53 83 
53 85 
53 92 
53 93 
54 55 
54 56 
54 57 
54 58 
54 59 
54 60 
54 63 
54 64 
54 71 
54 74 
54 84 
54 87 
54 94 
54 98 
55 56 
55 57 
55 58 
55 59 
55 60 
55 61 
55 65 
55 75 
55 76 
55 85 
55 90 
55 94 
55 95 
56 57 
56 58 
56 59 
56 60 
56 66 
56 70 
56 74 
56 76 
56 82 
56 86 
56 96 
56 97 
57 58 
57 59 
57 60 
57 65 
57 67 
57 73 
57 77 
57 87 
57 88 
57 91 
57 97 
58 59 
58 60 
58 66 
58 68 
58 72 
58 78 
58 88 
58 89 
58 98 
58 100 
59 60 
59 67 
59 69 
59 75 
59 79 
59 86 
59 89 
59 93 
59 99 
60 64 
60 70 
60 79 
60 80 
60 81 
60 90 
60 95 
60 100 
61 62 
61 63 
61 64 
61 65 
61 66 
61 67 
61 68 
61 69 
61 70 
61 71 
61 76 
61 81 
61 90 
61 91 
61 94 
62 63 
62 64 
62 65 
62 66 
62 67 
62 68 
62 69 
62 70 
62 72 
62 78 
62 82 
62 83 
62 92 
62 99 
63 64 
63 65 
63 66 
63 67 
63 68 
63 69 
63 70 
63 71 
63 73 
63 83 
63 87 
63 93 
63 98 
64 65 
64 66 
64 67 
64 68 
64 69 
64 70 
64 74 
64 79 
64 81 
64 84 
64 94 
64 95 
65 66 
65 67 
65 68 
65 69 
65 70 
65 73 
65 75 
65 85 
65 88 
65 91 
65 95 
66 67 
66 68 
66 69 
66 70 
66 72 
66 76 
66 86 
66 89 
66 96 
66 100 
67 68 
67 69 
67 70 
67 75 
67 77 
67 86 
67 87 
67 93 
67 97 
68 69 
68 70 
68 77 
68 78 
68 84 
68 88 
68 96 
68 98 
69 70 
69 79 
69 80 
69 85 
69 89 
69 92 
69 99 
70 74 
70 80 
70 82 
70 90 
70 97 
70 100 
71 72 
71 73 
71 74 
71 75 
71 76 
71 77 
71 78 
71 79 
71 80 
71 81 
71 87 
71 91 
71 98 
72 73 
72 74 
72 75 
72 76 
72 77 
72 78 
72 79 
72 80 
72 82 
72 89 
72 92 
72 100 
73 74 
73 75 
73 76 
73 77 
73 78 
73 79 
73 80 
73 83 
73 88 
73 91 
73 93 
74 75 
74 76 
74 77 
74 78 
74 79 
74 80 
74 82 
74 84 
74 94 
74 97 
75 76 
75 77 
75 78 
75 79 
75 80 
75 85 
75 86 
75 93 
75 95 
76 77 
76 78 
76 79 
76 80 
76 86 
76 90 
76 94 
76 96 
77 78 
77 79 
77 80 
77 84 
77 87 
77 96 
77 97 
78 79 
78 80 
78 83 
78 88 
78 98 
78 99 
79 80 
79 81 
79 89 
79 95 
79 99 
80 85 
80 90 
80 92 
80 100 
81 82 
81 83 
81 84 
81 85 
81 86 
81 87 
81 88 
81 89 
81 90 
81 91 
81 95 
82 83 
82 84 
82 85 
82 86 
82 87 
82 88 
82 89 
82 90 
82 92 
82 97 
83 84 
83 85 
83 86 
83 87 
83 88 
83 89 
83 90 
83 93 
83 99 
84 85 
84 86 
84 87 
84 88 
84 89 
84 90 
84 94 
84 96 
85 86 
85 87 
85 88 
85 89 
85 90 
85 92 
85 95 
86 87 
86 88 
86 89 
86 90 
86 93 
86 96 
87 88 
87 89 
87 90 
87 97 
87 98 
88 89 
88 90 
88 91 
88 98 
89 90 
89 99 
89 100 
90 94 
90 100 
91 92 
91 93 
91 94 
91 95 
91 96 
91 97 
91 98 
91 99 
91 100 
92 93 
92 94 
92 95 
92 96 
92 97 
92 98 
92 99 
92 100 
93 94 
93 95 
93 96 
93 97 
93 98 
93 99 
93 100 
94 95 
94 96 
94 97 
94 98 
94 99 
94 100 
95 96 
95 97 
95 98 
95 99 
95 100 
96 97 
96 98 
96 99 
96 100 
97 98 
97 99 
97 100 
98 99 
98 100 
99 100 
